(set-info :Origin "This instance was generated by: BanditFuzz-- an RL fuzzer for SMT solvers" )
(set-info :Author "Joe Scott, Fed Mora, Vijay Ganesh" )
(set-info :Contact "Joe Scott, joseph.scott@uwaterloo.ca")
; solvers/z3.sh
; 	time => 0.0981905460357666
; 	answer => unsat
; solvers/bitwuzla.sh
; 	time => 0.11770129203796387
; 	answer => unsat
; solvers/cvc4.sh
; 	time => 0.10706877708435059
; 	answer => err
(set-logic QF_BV)
(declare-const bool_0 Bool)
(declare-const bool_1 Bool)
(declare-const bool_2 Bool)
(declare-const bool_3 Bool)
(declare-const bool_4 Bool)
(declare-const bv_0 (_ BitVec 32))
(declare-const bv_1 (_ BitVec 32))
(declare-const bv_2 (_ BitVec 32))
(declare-const bv_3 (_ BitVec 32))
(declare-const bv_4 (_ BitVec 32))
(assert (bvsgt (bvudiv (bvmul bv_0 #xf08b69b0 ) (bvshl bv_2 #x35eb5a8b )) (bvand (bvor #xb7a08457  #xbeac7d28 ) (bvnand bv_0 bv_0))))
(assert (bvugt (bvsdiv (bvadd #xf105e4e6  bv_0) (bvsdiv #x02fe3644  bv_2)) (bvurem (bvadd #x415fb5ec  bv_1) (bvurem #x52c63979  bv_0))))
(assert (and (bvslt (bvadd bv_2 bv_4) (bvadd #x5fc96acd  #xec884b51 )) (not (bvslt #xe90b69c4  #x48c39825 ))))
(assert (or (bvule (bvnor bv_2 #x4f3e7a17 ) (bvnand #xf02b8981  #xa2a163a7 )) (bvuge (bvurem #xd5deae04  bv_4) (bvxor #x3030ac11  #x348a48a6 ))))
(assert (and (bvuge (bvlshr #x2a14dffc  #xbdba98df ) (bvxor #xbfdb0c2c  #x3fbd1781 )) (bvule (bvor #xaa2c1597  bv_2) (bvlshr #x03f71ffb  bv_1))))
(check-sat)
(exit)
